37
120
84	1
83	3
81	2
79	1
78	1
77	1
76	1
75	1
74	1
72	1
70	2
69	1
68	2
64	1
62	1
61	1
60	1
57	1
54	2
50	2
46	2
44	1
42	1
39	1
38	1
36	1
35	2
33	1
32	1
29	1
28	1
27	2
24	3
23	1
19	1
15	1
13	2
